
Gurobi 10.0.1 (linux64, Python) logging started Fri Mar  3 16:18:18 2023

Set parameter LogFile to value "gurobi.log"

Gurobi 10.0.1 (linux64, Python) logging started Fri Mar  3 16:23:23 2023

Set parameter LogFile to value "gurobi.log"

Gurobi 10.0.1 (linux64, Python) logging started Fri Mar  3 16:25:07 2023

Set parameter LogFile to value "gurobi.log"
